Cl3Cr1   [MCLC,MCLC3,mS16] (STD_PRIM doi
   1.00000000000000     
     5.8893796207055962    3.4048111146769378    0.0162752952066780
    -5.8893796207055962    3.4048111146769378    0.0162752952066780
     0.0000000000000000    2.2467361307015379    6.5003317720807123
   I    Cr
     6     2
Direct
  0.2174662939433719  0.2174662939433719  0.7592234983896184
  0.7825337060566280  0.7825337060566280  0.2407765016103815
  0.5772632316180069  0.9363418233002341  0.7682053043502978
  0.0636581766997661  0.4227367683819931  0.2317946956497021
  0.4227367683819931  0.0636581766997661  0.2317946956497021
  0.9363418233002341  0.5772632316180069  0.7682053043502978
  0.1652104023414271  0.8347895976585729  0.0000000000000000
  0.8347895976585729  0.1652104023414271  0.0000000000000000
 
  0.00000000E+00  0.00000000E+00  0.00000000E+00
  0.00000000E+00  0.00000000E+00  0.00000000E+00
  0.00000000E+00  0.00000000E+00  0.00000000E+00
  0.00000000E+00  0.00000000E+00  0.00000000E+00
  0.00000000E+00  0.00000000E+00  0.00000000E+00
  0.00000000E+00  0.00000000E+00  0.00000000E+00
  0.00000000E+00  0.00000000E+00  0.00000000E+00
  0.00000000E+00  0.00000000E+00  0.00000000E+00
