system
   1.00000000000000
    12.8055496216000009    0.0000000000000000    0.0000000000000000
    -6.4033182337000003   11.0896175186000008    0.0000000000000000
     0.0000000000000000    0.0000000000000000   20.4608135223000005
   S    Mo   Fe   Fe
    32    14     1    1
Direct
  0.1676926289686082  0.0836492211266209  0.0878934664836124
  0.1699708169039439  0.3344863297559064  0.0901304588064306
  0.1666267333192546  0.5826462096321375  0.0879895388990986
  0.1662387951350908  0.8324719176716949  0.0886658910271939
  0.4159604991380295  0.0836472623241361  0.0878927797283419
  0.4244917277139175  0.3489812207796089  0.1005626906503012
  0.4155738645901156  0.5739567965485411  0.0940081904678875
  0.4168036175133976  0.8321453724787036  0.0885676246299894
  0.6667008137488019  0.0843745438564542  0.0883286256477156
  0.6645104868256269  0.3344777852512080  0.0901331123788893
  0.6583898601619086  0.5739465304970940  0.0940078480250041
  0.6692839459667759  0.8385594531175361  0.0864720974214383
  0.9176824939795040  0.0843787403524282  0.0883293001851674
  0.9165313651106658  0.3330588535079487  0.0881987583426046
  0.9160233409588183  0.5826438380365095  0.0879889907052588
  0.9153490321420551  0.8321383868654073  0.0885684505435772
  0.1676926289686082  0.0836492211266209  0.2410478655163870
  0.1699708169039439  0.3344863297559064  0.2388108731935689
  0.1666267333192546  0.5826462096321375  0.2409517931009008
  0.1662387951350908  0.8324719176716949  0.2402754409728055
  0.4159604991380295  0.0836472623241361  0.2410485522716576
  0.4244917277139175  0.3489812207796089  0.2283786413496982
  0.4155738645901156  0.5739567965485411  0.2349331415321118
  0.4168036175133976  0.8321453724787036  0.2403737073700100
  0.6667008137488019  0.0843745438564542  0.2406127063522838
  0.6645104868256269  0.3344777852512080  0.2388082196211101
  0.6583898601619086  0.5739465304970940  0.2349334839749953
  0.6692839459667759  0.8385594531175361  0.2424692345785610
  0.9176824939795040  0.0843787403524282  0.2406120318148319
  0.9165313651106658  0.3330588535079487  0.2407425736573949
  0.9160233409588183  0.5826438380365095  0.2409523412947406
  0.9153490321420551  0.8321383868654073  0.2403728814564222
  0.0838505674570673  0.1663475490903125  0.1644706539999987
  0.0829607196861290  0.4161895263707568  0.1644706539999987
  0.0825931470423275  0.6651731235536112  0.1644706539999987
  0.0829308540218908  0.9163121327939761  0.1644706539999987
  0.3320831564025770  0.1641561100003120  0.1644706539999987
  0.8333364989497233  0.9180975493078085  0.1644706539999987
  0.3318207339028454  0.6651060630658353  0.1644706539999987
  0.3333879131036128  0.9163086785952029  0.1644706539999987
  0.5825014014100326  0.1663424246629306  0.1644706539999987
  0.8332918660130505  0.6651022872299222  0.1644706539999987
  0.5892142484544156  0.6784198674998670  0.1644706539999987
  0.5847689176289895  0.9180948623835354  0.1644706539999987
  0.8335366353383935  0.1670633227154238  0.1644706539999987
  0.8332352515756449  0.4161888925779926  0.1644706539999987
  0.5935732418954569  0.4115961252355291  0.1644706539999987
  0.3180324417648679  0.4116001013131186  0.1644706539999987

